1954.38 0
0 62 63 78 77 79 76 80 51 0 
0 23 90 92 18 20 0 
0 64 66 60 29 44 68 25 0 
0 17 96 91 88 94 98 95 89 93 0 
0 65 83 50 87 84 82 86 81 85 13 15 12 0 
0 27 21 7 100 6 8 9 2 1 10 5 3 4 16 0 
0 22 14 75 74 73 24 0 
0 26 99 97 11 0 
0 61 69 71 72 70 19 0 
0 45 35 43 48 47 36 31 33 40 39 41 28 30 67 58 32 49 0 
0 53 59 54 46 37 42 34 38 56 57 55 52 0 
